100
120
100
99
99
98
97
97
96
96
95
95
94
92
92
90
90
89
87
87
86
85
85
85
84
84
84
83
82
81
81
80
80
79
79
79
78
78
76
75
74
73
72
72
70
70
68
67
65
65
64
64
63
63
63
62
62
61
59
58
58
57
57
56
55
54
54
54
53
52
51
50
47
47
43
42
42
42
42
41
41
40
40
39
38
38
38
37
36
35
35
35
35
34
34
33
33
33
32
32
31
31
